#######################



#######################
Set parameter TimeLimit to value 500
Set parameter SoftMemLimit to value 125
Set parameter MIPFocus to value 3
Set parameter LogFile to value 1003-MIPFocus3-Presolve1-TimeLimit500-k16x240-4.log
Set parameter Presolve to value 1
Set parameter Seed to value 14
Using license file /opt/gurobi/gurobi.lic

Gurobi Optimizer version 10.0.3 build v10.0.3rc0 (linux64)
Copyright (c) 2023, Gurobi Optimization, LLC

Read MPS format model from file /miplib2010/k16x240.mps.bz2
Reading time = 0.00 seconds
k16x240: 256 rows, 480 columns, 960 nonzeros

CPU model: Intel(R) Xeon(R) E-2388G CPU @ 3.20GHz, instruction set [SSE2|AVX|AVX2|AVX512]
Thread count: 8 physical cores, 16 logical processors, using up to 16 threads

Optimize a model with 256 rows, 480 columns and 960 nonzeros
Model fingerprint: 0x4e80885f
Variable types: 240 continuous, 240 integer (240 binary)
Coefficient statistics:
  Matrix range     [1e+00, 1e+03]
  Objective range  [1e+00, 1e+03]
  Bounds range     [1e+00, 1e+03]
  RHS range        [4e+00, 4e+02]
Found heuristic solution: objective 19431.000000
Presolve time: 0.00s
Presolved: 256 rows, 480 columns, 960 nonzeros
Variable types: 240 continuous, 240 integer (240 binary)

Root relaxation: objective 2.769838e+03, 51 iterations, 0.00 seconds (0.00 work units)

    Nodes    |    Current Node    |     Objective Bounds      |     Work
 Expl Unexpl |  Obj  Depth IntInf | Incumbent    BestBd   Gap | It/Node Time

     0     0 2769.83800    0   14 19431.0000 2769.83800  85.7%     -    0s
H    0     0                    11359.000000 2769.83800  75.6%     -    0s
H    0     0                    11195.000000 2769.83800  75.3%     -    0s
H    0     0                    11074.000000 8116.87580  26.7%     -    0s
H    0     0                    10916.000000 8116.87580  25.6%     -    0s
     0     0 8116.87580    0   26 10916.0000 8116.87580  25.6%     -    0s
H    0     0                    10826.000000 8116.87580  25.0%     -    0s
     0     0 8742.09840    0   29 10826.0000 8742.09840  19.2%     -    0s
     0     0 8898.92549    0   21 10826.0000 8898.92549  17.8%     -    0s
     0     0 8898.92549    0   34 10826.0000 8898.92549  17.8%     -    0s
     0     0 8913.67548    0   36 10826.0000 8913.67548  17.7%     -    0s
     0     0 8919.35598    0   31 10826.0000 8919.35598  17.6%     -    0s
     0     0 9007.93228    0   33 10826.0000 9007.93228  16.8%     -    0s
H    0     0                    10792.000000 9007.93228  16.5%     -    0s
     0     0 9065.94563    0   33 10792.0000 9065.94563  16.0%     -    0s
     0     0 9065.94563    0   45 10792.0000 9065.94563  16.0%     -    0s
     0     0 9065.94563    0   42 10792.0000 9065.94563  16.0%     -    0s
     0     0 9142.09471    0   33 10792.0000 9142.09471  15.3%     -    0s
     0     0 9144.81019    0   33 10792.0000 9144.81019  15.3%     -    0s
     0     2 9145.41553    0   33 10792.0000 9145.41553  15.3%     -    0s
H   31    40                    10765.000000 9253.84553  14.0%  92.2    0s
H   32    40                    10748.000000 9254.80434  13.9%  91.2    0s
H  322   325                    10681.000000 9474.64247  11.3%  51.0    0s
H  545   566                    10674.000000 9507.40763  10.9%  44.5    0s
  4702  3605 10591.7316   23   32 10674.0000 10245.6520  4.01%  77.2    5s
 21108 12402     cutoff   26      10674.0000 10464.8125  1.96%  53.8   10s
 50672 12366     cutoff   26      10674.0000 10605.2375  0.64%  38.2   15s

Cutting planes:
  Lift-and-project: 9
  Implied bound: 10
  MIR: 134
  Flow cover: 468
  Flow path: 37
  Zero half: 39
  Network: 19
  Relax-and-lift: 4

Explored 69889 nodes (2175041 simplex iterations) in 16.76 seconds (22.16 work units)
Thread count was 16 (of 16 available processors)

Solution count 10: 10674 10681 10748 ... 11359

Optimal solution found (tolerance 1.00e-04)
Best objective 1.067400000000e+04, best bound 1.067310961106e+04, gap 0.0083%
